p wcnf 194 228 229 
1 -164 43 0 
1 -79 167 0 
1 -153 -19 0 
1 59 11 0 
1 33 -19 0 
1 -192 85 0 
1 -157 -49 0 
1 164 17 0 
1 -32 -26 0 
1 52 -143 0 
1 -194 -112 0 
1 -21 131 0 
1 -36 -189 0 
1 169 -59 0 
1 66 165 0 
1 -7 -21 0 
1 184 -24 0 
1 -80 -44 0 
1 -160 53 0 
1 -169 93 0 
1 148 99 0 
1 -35 -11 0 
1 -1 89 0 
1 -95 -104 0 
1 133 142 0 
1 -19 177 0 
1 127 143 0 
1 -177 32 0 
1 -129 -102 0 
1 -101 23 0 
1 162 -127 0 
1 -33 172 0 
1 122 175 0 
1 185 -47 0 
1 -148 82 0 
1 65 109 0 
1 98 -66 0 
1 -68 120 0 
1 140 141 0 
1 1 79 0 
1 172 40 0 
1 109 38 0 
1 28 -57 0 
1 -178 -150 0 
1 -183 61 0 
1 90 192 0 
1 136 134 0 
1 21 -25 0 
1 -177 -21 0 
1 -177 -41 0 
1 73 13 0 
1 141 -139 0 
1 -110 -162 0 
1 148 -5 0 
1 -180 -20 0 
1 -114 88 0 
1 -6 -8 0 
1 -57 -12 0 
1 -96 38 0 
1 -170 -140 0 
1 -180 -81 0 
1 -141 -185 0 
1 -80 -66 0 
1 104 183 0 
1 -26 96 0 
1 101 -114 0 
1 -144 -44 0 
1 124 -185 0 
1 -63 113 0 
1 38 -88 0 
1 -132 -107 0 
1 -100 46 0 
1 110 84 0 
1 -128 -102 0 
1 31 -141 0 
1 67 178 0 
1 -101 9 0 
1 67 -147 0 
1 -69 22 0 
1 184 179 0 
1 -191 94 0 
1 4 -118 0 
1 194 -25 0 
1 -186 116 0 
1 -37 64 0 
1 -89 174 0 
1 -150 51 0 
1 155 73 0 
1 68 -52 0 
1 161 -7 0 
1 130 -43 0 
1 -59 21 0 
1 52 22 0 
1 -48 -36 0 
1 -106 1 0 
1 -127 99 0 
1 -60 -64 0 
1 -27 -116 0 
1 -58 124 0 
1 -31 157 0 
1 102 20 0 
1 -12 -118 0 
1 120 20 0 
1 -154 11 0 
1 72 99 0 
1 159 99 0 
1 30 90 0 
1 -166 119 0 
1 96 88 0 
1 86 -89 0 
1 110 -166 0 
1 -79 -29 0 
1 -63 55 0 
1 -109 129 0 
1 125 -63 0 
1 154 -145 0 
1 -169 -33 0 
1 189 -79 0 
1 -193 -183 0 
1 -41 174 0 
1 -57 116 0 
1 -32 -37 0 
1 -44 -77 0 
1 -48 -102 0 
1 -71 -120 0 
1 -81 -83 0 
1 98 -172 0 
1 190 171 0 
1 -45 138 0 
1 -189 -96 0 
1 -56 24 0 
1 46 -67 0 
1 168 18 0 
1 10 -59 0 
1 -174 -48 0 
1 -42 -108 0 
1 -176 -30 0 
1 39 90 0 
1 91 33 0 
1 36 176 0 
1 -179 -139 0 
1 -137 93 0 
1 -167 47 0 
1 -124 -69 0 
1 -61 -121 0 
1 -163 -36 0 
1 183 -101 0 
1 -108 32 0 
1 -109 89 0 
1 105 -37 0 
1 -125 148 0 
1 -22 8 0 
1 163 -61 0 
1 15 -32 0 
1 -110 161 0 
1 167 -55 0 
1 -105 35 0 
1 -58 -49 0 
1 188 -98 0 
1 -180 -72 0 
1 36 151 0 
1 -188 -1 0 
1 34 146 0 
1 35 -62 0 
1 -39 21 0 
1 -131 139 0 
1 -150 90 0 
1 -146 111 0 
1 -108 -38 0 
1 -64 182 0 
1 -148 67 0 
1 179 126 0 
1 130 94 0 
1 19 -10 0 
1 -81 -145 0 
1 -102 39 0 
1 2 191 0 
1 -141 122 0 
1 -130 167 0 
1 49 -13 0 
1 41 40 0 
1 145 -190 0 
1 -57 -68 0 
1 181 -107 0 
1 57 -92 0 
1 47 -170 0 
1 -26 -114 0 
1 -85 190 0 
1 -99 -11 0 
1 -64 -52 0 
1 -175 -129 0 
1 -59 -97 0 
1 -118 -68 0 
1 45 -147 0 
1 -130 50 0 
1 63 -86 0 
1 -127 178 0 
1 98 20 0 
1 145 180 0 
1 -119 163 0 
1 -64 110 0 
1 105 130 0 
1 71 -119 0 
1 -169 42 0 
1 186 -189 0 
1 -181 -33 0 
1 166 157 0 
1 33 -52 0 
1 -169 -138 0 
1 -123 -12 0 
1 -91 -138 0 
1 -24 -93 0 
1 -57 -6 0 
1 -30 -62 0 
1 8 15 0 
1 -50 -188 0 
1 58 43 0 
1 -108 -109 0 
1 81 -171 0 
1 -94 113 0 
1 120 122 0 
1 41 152 0 
1 33 -54 0 
1 -110 -173 0 
1 136 -54 0 
1 34 -185 0 
1 -65 105 0 
1 42 -99 0 
